networks/zoo_88_1518/zoo_88_1518.txt
Number of groups: 44
Flow 25: {40 29} {29 73} 
Flow 34: {1 37} {37 41} {41 85} 
Flow 35: {37 42} {42 86} 
Flow 44: {2 37} {37 9} {9 53} 
Flow 97: {3 44} {44 36} {36 80} 
Flow 108: {4 44} {44 37} {37 28} {28 18} {18 62} 
Flow 128: {7 8} {8 52} 
Flow 151: {5 37} {37 34} {34 78} 
Flow 167: {6 37} {37 10} {10 54} 
Flow 210: {27 16} {16 60} 
Flow 271: {8 7} {7 37} {37 39} {39 83} 
Flow 278: {9 37} {37 2} {2 46} 
Flow 350: {10 37} {37 38} {38 82} 
Flow 376: {11 28} {28 22} {22 66} 
Flow 414: {12 28} {28 23} {23 67} 
Flow 437: {13 25} {25 27} {27 37} {37 6} {6 50} 
Flow 447: {18 19} {19 63} 
Flow 482: {14 27} {27 15} {15 59} 
Flow 517: {15 27} {27 31} {31 75} 
Flow 533: {16 27} {27 14} {14 58} 
Flow 573: {17 27} {27 71} 
Flow 643: {19 18} {18 28} {28 24} {24 68} 
Flow 671: {20 28} {28 12} {12 56} 
Flow 708: {21 28} {28 11} {11 55} 
Flow 752: {22 28} {28 72} 
Flow 792: {23 28} {28 37} {37 81} 
Flow 817: {24 28} {28 20} {20 64} 
Flow 896: {28 21} {21 65} 
Flow 906: {26 27} {27 32} {32 76} 
Flow 951: {44 35} {35 79} 
Flow 1007: {29 40} {40 37} {37 44} {44 88} 
Flow 1008: {30 37} {37 1} {1 45} 
Flow 1066: {31 27} {27 17} {17 61} 
Flow 1112: {32 27} {27 26} {26 70} 
Flow 1131: {33 35} {35 44} {44 4} {4 48} 
Flow 1168: {34 37} {37 30} {30 74} 
Flow 1214: {36 44} {44 3} {3 47} 
Flow 1272: {25 69} 
Flow 1295: {38 37} {37 5} {5 49} 
Flow 1334: {39 37} {37 7} {7 51} 
Flow 1429: {41 37} {37 43} {43 87} 
Flow 1443: {42 37} {37 27} {27 25} {25 13} {13 57} 
Flow 1461: {35 33} {33 77} 
Flow 1506: {43 37} {37 40} {40 84} 
Time taken running everything: 15 seconds
