networks/zoo_88_1518/zoo_88_1518.sol
<?xml version = "1.0" encoding="UTF-8" standalone="yes"?>
<CPLEXSolution version="1.2">
 <header
   problemName="networks/zoo_88_1518/zoo_88_1518.lp"
   solutionName="incumbent"
   solutionIndex="-1"
   objectiveValue="44"
   solutionTypeValue="3"
   solutionTypeString="primal"
   solutionStatusValue="101"
   solutionStatusString="integer optimal solution"
   solutionMethodString="mip"
   primalFeasible="1"
   dualFeasible="1"
   MIPNodes="0"
   MIPIterations="6538"
   writeLevel="3"/>
 <quality
   epInt="1.0000000000000001e-05"
   epRHS="9.9999999999999995e-07"
   maxIntInfeas="0"
   maxPrimalInfeas="0"
   maxX="4"
   maxSlack="10"/>
 <variables>
  <variable name="Y(25,29)" index="2140" value="1"/>
  <variable name="Y(34,41)" index="2944" value="1"/>
  <variable name="Y(35,42)" index="3033" value="1"/>
  <variable name="Y(44,9)" index="3792" value="1"/>
  <variable name="Y(97,36)" index="8483" value="1"/>
  <variable name="Y(108,18)" index="9433" value="1"/>
  <variable name="Y(128,8)" index="11183" value="1"/>
  <variable name="Y(151,34)" index="13233" value="1"/>
  <variable name="Y(167,10)" index="14617" value="1"/>
  <variable name="Y(210,16)" index="18407" value="1"/>
  <variable name="Y(271,39)" index="23798" value="1"/>
  <variable name="Y(278,2)" index="24377" value="1"/>
  <variable name="Y(350,38)" index="30749" value="1"/>
  <variable name="Y(376,22)" index="33021" value="1"/>
  <variable name="Y(414,23)" index="36366" value="1"/>
  <variable name="Y(437,6)" index="38373" value="1"/>
  <variable name="Y(447,19)" index="39266" value="1"/>
  <variable name="Y(482,15)" index="42342" value="1"/>
  <variable name="Y(517,31)" index="45438" value="1"/>
  <variable name="Y(533,14)" index="46829" value="1"/>
  <variable name="Y(573,27)" index="50362" value="1"/>
  <variable name="Y(643,24)" index="56519" value="1"/>
  <variable name="Y(671,12)" index="58971" value="1"/>
  <variable name="Y(708,11)" index="62226" value="1"/>
  <variable name="Y(752,28)" index="66115" value="1"/>
  <variable name="Y(792,37)" index="69644" value="1"/>
  <variable name="Y(817,20)" index="71827" value="1"/>
  <variable name="Y(896,21)" index="78780" value="1"/>
  <variable name="Y(906,32)" index="79671" value="1"/>
  <variable name="Y(951,35)" index="83634" value="1"/>
  <variable name="Y(1007,44)" index="88571" value="1"/>
  <variable name="Y(1008,1)" index="88616" value="1"/>
  <variable name="Y(1066,17)" index="93736" value="1"/>
  <variable name="Y(1112,26)" index="97793" value="1"/>
  <variable name="Y(1131,4)" index="99443" value="1"/>
  <variable name="Y(1168,30)" index="102725" value="1"/>
  <variable name="Y(1214,3)" index="106746" value="1"/>
  <variable name="Y(1272,25)" index="111872" value="1"/>
  <variable name="Y(1295,5)" index="113876" value="1"/>
  <variable name="Y(1334,7)" index="117310" value="1"/>
  <variable name="Y(1429,43)" index="125706" value="1"/>
  <variable name="Y(1443,13)" index="126908" value="1"/>
  <variable name="Y(1461,33)" index="128512" value="1"/>
  <variable name="Y(1506,40)" index="132479" value="1"/>
  <variable name="X(1,37,34)" index="133617" value="1"/>
  <variable name="X(1,45,1008)" index="136109" value="1"/>
  <variable name="X(2,37,44)" index="136663" value="1"/>
  <variable name="X(2,46,278)" index="138415" value="1"/>
  <variable name="X(3,44,97)" index="139752" value="1"/>
  <variable name="X(3,47,1214)" index="142387" value="1"/>
  <variable name="X(4,44,108)" index="142799" value="1"/>
  <variable name="X(4,48,1131)" index="145340" value="1"/>
  <variable name="X(5,37,151)" index="145878" value="1"/>
  <variable name="X(5,49,1295)" index="148540" value="1"/>
  <variable name="X(6,37,167)" index="148930" value="1"/>
  <variable name="X(6,50,437)" index="150718" value="1"/>
  <variable name="X(7,8,128)" index="151927" value="1"/>
  <variable name="X(7,37,271)" index="153588" value="1"/>
  <variable name="X(7,51,1334)" index="156169" value="1"/>
  <variable name="X(8,7,271)" index="156624" value="1"/>
  <variable name="X(8,52,128)" index="157999" value="1"/>
  <variable name="X(9,37,278)" index="159667" value="1"/>
  <variable name="X(9,53,44)" index="160951" value="1"/>
  <variable name="X(10,37,350)" index="162775" value="1"/>
  <variable name="X(10,54,167)" index="164110" value="1"/>
  <variable name="X(11,28,376)" index="165837" value="1"/>
  <variable name="X(11,55,708)" index="167687" value="1"/>
  <variable name="X(12,28,414)" index="168911" value="1"/>
  <variable name="X(12,56,671)" index="170686" value="1"/>
  <variable name="X(13,25,437)" index="171970" value="1"/>
  <variable name="X(13,57,1443)" index="174494" value="1"/>
  <variable name="X(14,27,482)" index="175051" value="1"/>
  <variable name="X(14,58,533)" index="176620" value="1"/>
  <variable name="X(15,27,517)" index="178122" value="1"/>
  <variable name="X(15,59,482)" index="179605" value="1"/>
  <variable name="X(16,27,533)" index="181174" value="1"/>
  <variable name="X(16,60,210)" index="182369" value="1"/>
  <variable name="X(17,27,573)" index="184250" value="1"/>
  <variable name="X(17,61,1066)" index="186261" value="1"/>
  <variable name="X(18,19,447)" index="187160" value="1"/>
  <variable name="X(18,28,643)" index="188874" value="1"/>
  <variable name="X(18,62,108)" index="189857" value="1"/>
  <variable name="X(19,18,643)" index="191910" value="1"/>
  <variable name="X(19,63,447)" index="193232" value="1"/>
  <variable name="X(20,28,671)" index="194974" value="1"/>
  <variable name="X(20,64,817)" index="196638" value="1"/>
  <variable name="X(21,28,708)" index="198047" value="1"/>
  <variable name="X(21,65,896)" index="199753" value="1"/>
  <variable name="X(22,28,752)" index="201127" value="1"/>
  <variable name="X(22,66,376)" index="202269" value="1"/>
  <variable name="X(23,28,792)" index="204203" value="1"/>
  <variable name="X(23,67,414)" index="205343" value="1"/>
  <variable name="X(24,28,817)" index="207264" value="1"/>
  <variable name="X(24,68,643)" index="208608" value="1"/>
  <variable name="X(25,13,1443)" index="210926" value="1"/>
  <variable name="X(25,27,437)" index="211438" value="1"/>
  <variable name="X(25,69,1272)" index="213791" value="1"/>
  <variable name="X(26,27,906)" index="214943" value="1"/>
  <variable name="X(26,70,1112)" index="216667" value="1"/>
  <variable name="X(27,14,533)" index="217606" value="1"/>
  <variable name="X(27,15,482)" index="219073" value="1"/>
  <variable name="X(27,16,210)" index="220319" value="1"/>
  <variable name="X(27,17,1066)" index="222693" value="1"/>
  <variable name="X(27,25,1443)" index="224588" value="1"/>
  <variable name="X(27,26,1112)" index="225775" value="1"/>
  <variable name="X(27,31,517)" index="226698" value="1"/>
  <variable name="X(27,32,906)" index="228605" value="1"/>
  <variable name="X(27,37,437)" index="229654" value="1"/>
  <variable name="X(27,71,573)" index="231308" value="1"/>
  <variable name="X(28,11,708)" index="232961" value="1"/>
  <variable name="X(28,12,671)" index="234442" value="1"/>
  <variable name="X(28,18,108)" index="235397" value="1"/>
  <variable name="X(28,20,817)" index="237624" value="1"/>
  <variable name="X(28,21,896)" index="239221" value="1"/>
  <variable name="X(28,22,376)" index="240219" value="1"/>
  <variable name="X(28,23,414)" index="241775" value="1"/>
  <variable name="X(28,24,643)" index="243522" value="1"/>
  <variable name="X(28,37,792)" index="245189" value="1"/>
  <variable name="X(28,72,752)" index="246667" value="1"/>
  <variable name="X(29,40,1007)" index="248440" value="1"/>
  <variable name="X(29,73,25)" index="248976" value="1"/>
  <variable name="X(30,37,1008)" index="251477" value="1"/>
  <variable name="X(30,74,1168)" index="253155" value="1"/>
  <variable name="X(31,27,1066)" index="254571" value="1"/>
  <variable name="X(31,75,517)" index="255540" value="1"/>
  <variable name="X(32,27,1112)" index="257653" value="1"/>
  <variable name="X(32,76,906)" index="258965" value="1"/>
  <variable name="X(33,35,1131)" index="260708" value="1"/>
  <variable name="X(33,77,1461)" index="262556" value="1"/>
  <variable name="X(34,37,1168)" index="263781" value="1"/>
  <variable name="X(34,78,151)" index="264282" value="1"/>
  <variable name="X(35,33,1461)" index="267110" value="1"/>
  <variable name="X(35,44,1131)" index="268298" value="1"/>
  <variable name="X(35,79,951)" index="269636" value="1"/>
  <variable name="X(36,44,1214)" index="271417" value="1"/>
  <variable name="X(36,80,97)" index="271818" value="1"/>
  <variable name="X(37,1,1008)" index="274247" value="1"/>
  <variable name="X(37,2,278)" index="275035" value="1"/>
  <variable name="X(37,5,1295)" index="277570" value="1"/>
  <variable name="X(37,6,437)" index="278230" value="1"/>
  <variable name="X(37,7,1334)" index="280645" value="1"/>
  <variable name="X(37,9,44)" index="280873" value="1"/>
  <variable name="X(37,10,167)" index="282514" value="1"/>
  <variable name="X(37,27,1443)" index="285308" value="1"/>
  <variable name="X(37,28,108)" index="285491" value="1"/>
  <variable name="X(37,30,1168)" index="288069" value="1"/>
  <variable name="X(37,34,151)" index="288570" value="1"/>
  <variable name="X(37,38,350)" index="290287" value="1"/>
  <variable name="X(37,39,271)" index="291726" value="1"/>
  <variable name="X(37,40,1506)" index="294479" value="1"/>
  <variable name="X(37,41,34)" index="294525" value="1"/>
  <variable name="X(37,42,35)" index="296044" value="1"/>
  <variable name="X(37,43,1429)" index="298956" value="1"/>
  <variable name="X(37,44,1007)" index="300052" value="1"/>
  <variable name="X(37,81,792)" index="301355" value="1"/>
  <variable name="X(38,37,1295)" index="303376" value="1"/>
  <variable name="X(38,82,350)" index="303949" value="1"/>
  <variable name="X(39,37,1334)" index="306451" value="1"/>
  <variable name="X(39,83,271)" index="306906" value="1"/>
  <variable name="X(40,29,25)" index="308178" value="1"/>
  <variable name="X(40,37,1007)" index="310678" value="1"/>
  <variable name="X(40,84,1506)" index="312695" value="1"/>
  <variable name="X(41,37,1429)" index="314136" value="1"/>
  <variable name="X(41,85,34)" index="314259" value="1"/>
  <variable name="X(42,37,1443)" index="317186" value="1"/>
  <variable name="X(42,86,35)" index="317296" value="1"/>
  <variable name="X(43,37,1506)" index="320285" value="1"/>
  <variable name="X(43,87,1429)" index="321726" value="1"/>
  <variable name="X(44,3,1214)" index="323029" value="1"/>
  <variable name="X(44,4,1131)" index="324464" value="1"/>
  <variable name="X(44,35,951)" index="325802" value="1"/>
  <variable name="X(44,36,97)" index="326466" value="1"/>
  <variable name="X(44,37,108)" index="327995" value="1"/>
  <variable name="X(44,88,1007)" index="330412" value="1"/>
  <variable name="C(25,29)" index="331017" value="1"/>
  <variable name="C(34,37)" index="331046" value="1"/>
  <variable name="C(34,41)" index="331047" value="2"/>
  <variable name="C(35,42)" index="331050" value="1"/>
  <variable name="C(44,37)" index="331078" value="1"/>
  <variable name="C(44,9)" index="331079" value="2"/>
  <variable name="C(97,44)" index="331292" value="1"/>
  <variable name="C(97,36)" index="331293" value="2"/>
  <variable name="C(108,44)" index="331333" value="1"/>
  <variable name="C(108,37)" index="331334" value="2"/>
  <variable name="C(108,28)" index="331335" value="3"/>
  <variable name="C(108,18)" index="331336" value="4"/>
  <variable name="C(128,8)" index="331411" value="1"/>
  <variable name="C(151,37)" index="331499" value="1"/>
  <variable name="C(151,34)" index="331500" value="2"/>
  <variable name="C(167,37)" index="331549" value="1"/>
  <variable name="C(167,10)" index="331550" value="2"/>
  <variable name="C(210,16)" index="331706" value="1"/>
  <variable name="C(271,7)" index="331959" value="1"/>
  <variable name="C(271,37)" index="331960" value="2"/>
  <variable name="C(271,39)" index="331961" value="3"/>
  <variable name="C(278,37)" index="331986" value="1"/>
  <variable name="C(278,2)" index="331987" value="2"/>
  <variable name="C(350,37)" index="332251" value="1"/>
  <variable name="C(350,38)" index="332252" value="2"/>
  <variable name="C(376,28)" index="332352" value="1"/>
  <variable name="C(376,22)" index="332353" value="2"/>
  <variable name="C(414,28)" index="332506" value="1"/>
  <variable name="C(414,23)" index="332507" value="2"/>
  <variable name="C(437,25)" index="332606" value="1"/>
  <variable name="C(437,27)" index="332607" value="2"/>
  <variable name="C(437,37)" index="332608" value="3"/>
  <variable name="C(437,6)" index="332609" value="4"/>
  <variable name="C(447,19)" index="332661" value="1"/>
  <variable name="C(482,27)" index="332829" value="1"/>
  <variable name="C(482,15)" index="332830" value="2"/>
  <variable name="C(517,27)" index="332971" value="1"/>
  <variable name="C(517,31)" index="332972" value="2"/>
  <variable name="C(533,27)" index="333036" value="1"/>
  <variable name="C(533,14)" index="333037" value="2"/>
  <variable name="C(573,17)" index="333202" value="3"/>
  <variable name="C(573,27)" index="333203" value="4"/>
  <variable name="C(643,18)" index="333502" value="1"/>
  <variable name="C(643,28)" index="333503" value="2"/>
  <variable name="C(643,24)" index="333504" value="3"/>
  <variable name="C(671,28)" index="333635" value="1"/>
  <variable name="C(671,12)" index="333636" value="2"/>
  <variable name="C(708,28)" index="333788" value="1"/>
  <variable name="C(708,11)" index="333789" value="2"/>
  <variable name="C(752,28)" index="333969" value="1"/>
  <variable name="C(792,28)" index="334134" value="1"/>
  <variable name="C(792,37)" index="334135" value="2"/>
  <variable name="C(817,28)" index="334238" value="1"/>
  <variable name="C(817,20)" index="334239" value="2"/>
  <variable name="C(896,21)" index="334570" value="1"/>
  <variable name="C(906,27)" index="334608" value="1"/>
  <variable name="C(906,32)" index="334609" value="2"/>
  <variable name="C(951,35)" index="334767" value="1"/>
  <variable name="C(1007,40)" index="334946" value="1"/>
  <variable name="C(1007,37)" index="334947" value="2"/>
  <variable name="C(1007,44)" index="334948" value="3"/>
  <variable name="C(1008,37)" index="334950" value="1"/>
  <variable name="C(1008,1)" index="334951" value="2"/>
  <variable name="C(1066,27)" index="335169" value="1"/>
  <variable name="C(1066,17)" index="335170" value="2"/>
  <variable name="C(1112,27)" index="335370" value="1"/>
  <variable name="C(1112,26)" index="335371" value="2"/>
  <variable name="C(1131,35)" index="335447" value="1"/>
  <variable name="C(1131,44)" index="335448" value="2"/>
  <variable name="C(1131,4)" index="335449" value="3"/>
  <variable name="C(1168,37)" index="335637" value="1"/>
  <variable name="C(1168,30)" index="335638" value="2"/>
  <variable name="C(1214,44)" index="335828" value="1"/>
  <variable name="C(1214,3)" index="335829" value="2"/>
  <variable name="C(1295,37)" index="336104" value="1"/>
  <variable name="C(1295,5)" index="336105" value="2"/>
  <variable name="C(1334,37)" index="336242" value="1"/>
  <variable name="C(1334,7)" index="336243" value="2"/>
  <variable name="C(1429,37)" index="336584" value="1"/>
  <variable name="C(1429,43)" index="336585" value="2"/>
  <variable name="C(1443,37)" index="336631" value="1"/>
  <variable name="C(1443,27)" index="336632" value="2"/>
  <variable name="C(1443,25)" index="336633" value="3"/>
  <variable name="C(1443,13)" index="336634" value="4"/>
  <variable name="C(1461,33)" index="336705" value="1"/>
  <variable name="C(1506,37)" index="336864" value="1"/>
  <variable name="C(1506,40)" index="336865" value="2"/>
 </variables>
</CPLEXSolution>
